nK = 975;
nT = 6;
nI = 14;
L = 35;
TT = 225;
np = 1;
nc = 3;
b = [31, 42, 54, 21, 43, 29, 51, 30, 57, 43, 29, 47, 20, 61];
d = [113, 142, 116, 144, 82, 66, 77, 84, 91, 73, 122, 129, 142, 128];
m = [2.5, 1.5, 1.2, 2, 2.1, 1.8, 1.4, 1.7, 2.3, 1.7, 1.9, 2.4, 1.4, 1.4];
pt = [0.3, 0.22, 0.29, 0.26, 0.28, 0.28];
st = [12.3, 10.56, 11.89, 11.7, 13.16, 14.56];
arc = {<1, 0, 1, 1, 0, 0, 0, [1, 1, 1, 1, 1, 1]>, <2, 1, 2, 1, 0, 0, 0, [1, 1, 1, 1, 1, 1]>, <3, 2, 3, 1, 0, 0, 0, [1, 1, 1, 1, 1, 1]>, <4, 3, 4, 1, 0, 0, 0, [1, 1, 1, 1, 1, 1]>, <5, 4, 5, 1, 0, 0, 0, [1, 1, 1, 1, 1, 1]>, <6, 5, 6, 1, 0, 0, 0, [1, 1, 1, 1, 1, 1]>, <7, 6, 7, 1, 0, 0, 0, [1, 1, 1, 1, 1, 1]>, <8, 7, 8, 1, 0, 0, 0, [1, 1, 1, 1, 1, 1]>, <9, 8, 9, 1, 0, 0, 0, [1, 1, 1, 1, 1, 1]>, <10, 9, 10, 1, 0, 0, 0, [1, 1, 1, 1, 1, 1]>, <11, 10, 11, 1, 0, 0, 0, [1, 1, 1, 1, 1, 1]>, <12, 11, 12, 1, 0, 0, 0, [1, 1, 1, 1, 1, 1]>, <13, 12, 13, 1, 0, 0, 0, [1, 1, 1, 1, 1, 1]>, <14, 13, 14, 1, 0, 0, 0, [1, 1, 1, 1, 1, 1]>, <15, 14, 15, 1, 0, 0, 0, [1, 1, 1, 1, 1, 1]>, <16, 15, 16, 1, 0, 0, 0, [1, 1, 1, 1, 1, 1]>, <17, 16, 17, 1, 0, 0, 0, [1, 1, 1, 1, 1, 1]>, <18, 17, 18, 1, 0, 0, 0, [1, 1, 1, 1, 1, 1]>, <19, 18, 19, 1, 0, 0, 0, [1, 1, 1, 1, 1, 1]>, <20, 19, 20, 1, 0, 0, 0, [1, 1, 1, 1, 1, 1]>, <21, 20, 21, 1, 0, 0, 0, [1, 1, 1, 1, 1, 1]>, <22, 21, 22, 1, 0, 0, 0, [1, 1, 1, 1, 1, 1]>, <23, 22, 23, 1, 0, 0, 0, [1, 1, 1, 1, 1, 1]>, <24, 23, 24, 1, 0, 0, 0, [1, 1, 1, 1, 1, 1]>, <25, 24, 25, 1, 0, 0, 0, [1, 1, 1, 1, 1, 1]>, <26, 25, 26, 1, 0, 0, 0, [1, 1, 1, 1, 1, 1]>, <27, 26, 27, 1, 0, 0, 0, [1, 1, 1, 1, 1, 1]>, <28, 27, 28, 1, 0, 0, 0, [1, 1, 1, 1, 1, 1]>, <29, 28, 29, 1, 0, 0, 0, [1, 1, 1, 1, 1, 1]>, <30, 29, 30, 1, 0, 0, 0, [1, 1, 1, 1, 1, 1]>, <31, 30, 31, 1, 0, 0, 0, [1, 1, 1, 1, 1, 1]>, <32, 31, 32, 1, 0, 0, 0, [1, 1, 1, 1, 1, 1]>, <33, 32, 33, 1, 0, 0, 0, [1, 1, 1, 1, 1, 1]>, <34, 33, 34, 1, 0, 0, 0, [1, 1, 1, 1, 1, 1]>, <35, 34, 35, 1, 0, 0, 0, [1, 1, 1, 1, 1, 1]>, <36, 5, 16, 11, 1, 0, 0, [1, 1, 1, 0, 0, 1]>, <37, 6, 17, 11, 1, 0, 0, [1, 1, 1, 0, 0, 1]>, <38, 14, 25, 11, 1, 0, 0, [1, 1, 1, 0, 0, 1]>, <39, 15, 26, 11, 1, 0, 0, [1, 1, 1, 0, 0, 1]>, <40, 20, 31, 11, 1, 0, 0, [1, 1, 1, 0, 0, 1]>, <41, 21, 32, 11, 1, 0, 0, [1, 1, 1, 0, 0, 1]>, <42, 22, 33, 11, 1, 0, 0, [1, 1, 1, 0, 0, 1]>, <43, 23, 34, 11, 1, 0, 0, [1, 1, 1, 0, 0, 1]>, <44, 24, 35, 11, 1, 0, 0, [1, 1, 1, 0, 0, 1]>, <45, 5, 15, 10, 2, 0, 0, [0, 1, 1, 1, 1, 0]>, <46, 6, 16, 10, 2, 0, 0, [0, 1, 1, 1, 1, 0]>, <47, 14, 24, 10, 2, 0, 0, [0, 1, 1, 1, 1, 0]>, <48, 15, 25, 10, 2, 0, 0, [0, 1, 1, 1, 1, 0]>, <49, 21, 31, 10, 2, 0, 0, [0, 1, 1, 1, 1, 0]>, <50, 22, 32, 10, 2, 0, 0, [0, 1, 1, 1, 1, 0]>, <51, 23, 33, 10, 2, 0, 0, [0, 1, 1, 1, 1, 0]>, <52, 24, 34, 10, 2, 0, 0, [0, 1, 1, 1, 1, 0]>, <53, 4, 17, 13, 3, 0, 0, [1, 0, 0, 1, 1, 1]>, <54, 5, 18, 13, 3, 0, 0, [1, 0, 0, 1, 1, 1]>, <55, 6, 19, 13, 3, 0, 0, [1, 0, 0, 1, 1, 1]>, <56, 13, 26, 13, 3, 0, 0, [1, 0, 0, 1, 1, 1]>, <57, 14, 27, 13, 3, 0, 0, [1, 0, 0, 1, 1, 1]>, <58, 15, 28, 13, 3, 0, 0, [1, 0, 0, 1, 1, 1]>, <59, 18, 31, 13, 3, 0, 0, [1, 0, 0, 1, 1, 1]>, <60, 19, 32, 13, 3, 0, 0, [1, 0, 0, 1, 1, 1]>, <61, 20, 33, 13, 3, 0, 0, [1, 0, 0, 1, 1, 1]>, <62, 21, 34, 13, 3, 0, 0, [1, 0, 0, 1, 1, 1]>, <63, 22, 35, 13, 3, 0, 0, [1, 0, 0, 1, 1, 1]>, <64, 2, 17, 15, 4, 0, 0, [1, 1, 1, 1, 0, 0]>, <65, 3, 18, 15, 4, 0, 0, [1, 1, 1, 1, 0, 0]>, <66, 4, 19, 15, 4, 0, 0, [1, 1, 1, 1, 0, 0]>, <67, 5, 20, 15, 4, 0, 0, [1, 1, 1, 1, 0, 0]>, <68, 6, 21, 15, 4, 0, 0, [1, 1, 1, 1, 0, 0]>, <69, 11, 26, 15, 4, 0, 0, [1, 1, 1, 1, 0, 0]>, <70, 12, 27, 15, 4, 0, 0, [1, 1, 1, 1, 0, 0]>, <71, 13, 28, 15, 4, 0, 0, [1, 1, 1, 1, 0, 0]>, <72, 14, 29, 15, 4, 0, 0, [1, 1, 1, 1, 0, 0]>, <73, 15, 30, 15, 4, 0, 0, [1, 1, 1, 1, 0, 0]>, <74, 16, 31, 15, 4, 0, 0, [1, 1, 1, 1, 0, 0]>, <75, 17, 32, 15, 4, 0, 0, [1, 1, 1, 1, 0, 0]>, <76, 18, 33, 15, 4, 0, 0, [1, 1, 1, 1, 0, 0]>, <77, 19, 34, 15, 4, 0, 0, [1, 1, 1, 1, 0, 0]>, <78, 20, 35, 15, 4, 0, 0, [1, 1, 1, 1, 0, 0]>, <79, 4, 17, 13, 5, 0, 0, [1, 1, 0, 0, 1, 1]>, <80, 5, 18, 13, 5, 0, 0, [1, 1, 0, 0, 1, 1]>, <81, 6, 19, 13, 5, 0, 0, [1, 1, 0, 0, 1, 1]>, <82, 13, 26, 13, 5, 0, 0, [1, 1, 0, 0, 1, 1]>, <83, 14, 27, 13, 5, 0, 0, [1, 1, 0, 0, 1, 1]>, <84, 15, 28, 13, 5, 0, 0, [1, 1, 0, 0, 1, 1]>, <85, 18, 31, 13, 5, 0, 0, [1, 1, 0, 0, 1, 1]>, <86, 19, 32, 13, 5, 0, 0, [1, 1, 0, 0, 1, 1]>, <87, 20, 33, 13, 5, 0, 0, [1, 1, 0, 0, 1, 1]>, <88, 21, 34, 13, 5, 0, 0, [1, 1, 0, 0, 1, 1]>, <89, 22, 35, 13, 5, 0, 0, [1, 1, 0, 0, 1, 1]>, <90, 5, 16, 11, 6, 1, 0, [0, 0, 1, 1, 1, 1]>, <91, 6, 17, 11, 6, 1, 0, [0, 0, 1, 1, 1, 1]>, <92, 14, 25, 11, 6, 1, 0, [0, 0, 1, 1, 1, 1]>, <93, 15, 26, 11, 6, 1, 0, [0, 0, 1, 1, 1, 1]>, <94, 20, 31, 11, 6, 1, 0, [0, 0, 1, 1, 1, 1]>, <95, 21, 32, 11, 6, 1, 0, [0, 0, 1, 1, 1, 1]>, <96, 22, 33, 11, 6, 1, 0, [0, 0, 1, 1, 1, 1]>, <97, 23, 34, 11, 6, 1, 0, [0, 0, 1, 1, 1, 1]>, <98, 24, 35, 11, 6, 1, 0, [0, 0, 1, 1, 1, 1]>, <99, 5, 14, 9, 7, 0, 1, [1, 1, 1, 1, 0, 0]>, <100, 6, 15, 9, 7, 0, 1, [1, 1, 1, 1, 0, 0]>, <101, 14, 23, 9, 7, 0, 1, [1, 1, 1, 1, 0, 0]>, <102, 15, 24, 9, 7, 0, 1, [1, 1, 1, 1, 0, 0]>, <103, 22, 31, 9, 7, 0, 1, [1, 1, 1, 1, 0, 0]>, <104, 23, 32, 9, 7, 0, 1, [1, 1, 1, 1, 0, 0]>, <105, 24, 33, 9, 7, 0, 1, [1, 1, 1, 1, 0, 0]>, <106, 5, 16, 11, 8, 0, 1, [0, 1, 1, 1, 1, 0]>, <107, 6, 17, 11, 8, 0, 1, [0, 1, 1, 1, 1, 0]>, <108, 14, 25, 11, 8, 0, 1, [0, 1, 1, 1, 1, 0]>, <109, 15, 26, 11, 8, 0, 1, [0, 1, 1, 1, 1, 0]>, <110, 20, 31, 11, 8, 0, 1, [0, 1, 1, 1, 1, 0]>, <111, 21, 32, 11, 8, 0, 1, [0, 1, 1, 1, 1, 0]>, <112, 22, 33, 11, 8, 0, 1, [0, 1, 1, 1, 1, 0]>, <113, 23, 34, 11, 8, 0, 1, [0, 1, 1, 1, 1, 0]>, <114, 24, 35, 11, 8, 0, 1, [0, 1, 1, 1, 1, 0]>, <115, 4, 17, 13, 9, 1, 0, [1, 1, 0, 0, 1, 1]>, <116, 5, 18, 13, 9, 1, 0, [1, 1, 0, 0, 1, 1]>, <117, 6, 19, 13, 9, 1, 0, [1, 1, 0, 0, 1, 1]>, <118, 13, 26, 13, 9, 1, 0, [1, 1, 0, 0, 1, 1]>, <119, 14, 27, 13, 9, 1, 0, [1, 1, 0, 0, 1, 1]>, <120, 15, 28, 13, 9, 1, 0, [1, 1, 0, 0, 1, 1]>, <121, 18, 31, 13, 9, 1, 0, [1, 1, 0, 0, 1, 1]>, <122, 19, 32, 13, 9, 1, 0, [1, 1, 0, 0, 1, 1]>, <123, 20, 33, 13, 9, 1, 0, [1, 1, 0, 0, 1, 1]>, <124, 21, 34, 13, 9, 1, 0, [1, 1, 0, 0, 1, 1]>, <125, 22, 35, 13, 9, 1, 0, [1, 1, 0, 0, 1, 1]>, <126, 2, 17, 15, 10, 1, 0, [1, 1, 1, 1, 0, 0]>, <127, 3, 18, 15, 10, 1, 0, [1, 1, 1, 1, 0, 0]>, <128, 4, 19, 15, 10, 1, 0, [1, 1, 1, 1, 0, 0]>, <129, 5, 20, 15, 10, 1, 0, [1, 1, 1, 1, 0, 0]>, <130, 6, 21, 15, 10, 1, 0, [1, 1, 1, 1, 0, 0]>, <131, 11, 26, 15, 10, 1, 0, [1, 1, 1, 1, 0, 0]>, <132, 12, 27, 15, 10, 1, 0, [1, 1, 1, 1, 0, 0]>, <133, 13, 28, 15, 10, 1, 0, [1, 1, 1, 1, 0, 0]>, <134, 14, 29, 15, 10, 1, 0, [1, 1, 1, 1, 0, 0]>, <135, 15, 30, 15, 10, 1, 0, [1, 1, 1, 1, 0, 0]>, <136, 16, 31, 15, 10, 1, 0, [1, 1, 1, 1, 0, 0]>, <137, 17, 32, 15, 10, 1, 0, [1, 1, 1, 1, 0, 0]>, <138, 18, 33, 15, 10, 1, 0, [1, 1, 1, 1, 0, 0]>, <139, 19, 34, 15, 10, 1, 0, [1, 1, 1, 1, 0, 0]>, <140, 20, 35, 15, 10, 1, 0, [1, 1, 1, 1, 0, 0]>, <141, 3, 17, 14, 11, 0, 1, [1, 0, 0, 1, 1, 1]>, <142, 4, 18, 14, 11, 0, 1, [1, 0, 0, 1, 1, 1]>, <143, 5, 19, 14, 11, 0, 1, [1, 0, 0, 1, 1, 1]>, <144, 6, 20, 14, 11, 0, 1, [1, 0, 0, 1, 1, 1]>, <145, 12, 26, 14, 11, 0, 1, [1, 0, 0, 1, 1, 1]>, <146, 13, 27, 14, 11, 0, 1, [1, 0, 0, 1, 1, 1]>, <147, 14, 28, 14, 11, 0, 1, [1, 0, 0, 1, 1, 1]>, <148, 15, 29, 14, 11, 0, 1, [1, 0, 0, 1, 1, 1]>, <149, 17, 31, 14, 11, 0, 1, [1, 0, 0, 1, 1, 1]>, <150, 18, 32, 14, 11, 0, 1, [1, 0, 0, 1, 1, 1]>, <151, 19, 33, 14, 11, 0, 1, [1, 0, 0, 1, 1, 1]>, <152, 20, 34, 14, 11, 0, 1, [1, 0, 0, 1, 1, 1]>, <153, 21, 35, 14, 11, 0, 1, [1, 0, 0, 1, 1, 1]>, <154, 5, 17, 12, 12, 0, 0, [0, 1, 1, 1, 1, 0]>, <155, 6, 18, 12, 12, 0, 0, [0, 1, 1, 1, 1, 0]>, <156, 14, 26, 12, 12, 0, 0, [0, 1, 1, 1, 1, 0]>, <157, 15, 27, 12, 12, 0, 0, [0, 1, 1, 1, 1, 0]>, <158, 19, 31, 12, 12, 0, 0, [0, 1, 1, 1, 1, 0]>, <159, 20, 32, 12, 12, 0, 0, [0, 1, 1, 1, 1, 0]>, <160, 21, 33, 12, 12, 0, 0, [0, 1, 1, 1, 1, 0]>, <161, 22, 34, 12, 12, 0, 0, [0, 1, 1, 1, 1, 0]>, <162, 23, 35, 12, 12, 0, 0, [0, 1, 1, 1, 1, 0]>, <163, 5, 14, 9, 13, 0, 0, [1, 1, 1, 1, 0, 0]>, <164, 6, 15, 9, 13, 0, 0, [1, 1, 1, 1, 0, 0]>, <165, 14, 23, 9, 13, 0, 0, [1, 1, 1, 1, 0, 0]>, <166, 15, 24, 9, 13, 0, 0, [1, 1, 1, 1, 0, 0]>, <167, 22, 31, 9, 13, 0, 0, [1, 1, 1, 1, 0, 0]>, <168, 23, 32, 9, 13, 0, 0, [1, 1, 1, 1, 0, 0]>, <169, 24, 33, 9, 13, 0, 0, [1, 1, 1, 1, 0, 0]>, <170, 5, 17, 12, 14, 0, 1, [1, 0, 0, 1, 1, 1]>, <171, 6, 18, 12, 14, 0, 1, [1, 0, 0, 1, 1, 1]>, <172, 14, 26, 12, 14, 0, 1, [1, 0, 0, 1, 1, 1]>, <173, 15, 27, 12, 14, 0, 1, [1, 0, 0, 1, 1, 1]>, <174, 19, 31, 12, 14, 0, 1, [1, 0, 0, 1, 1, 1]>, <175, 20, 32, 12, 14, 0, 1, [1, 0, 0, 1, 1, 1]>, <176, 21, 33, 12, 14, 0, 1, [1, 0, 0, 1, 1, 1]>, <177, 22, 34, 12, 14, 0, 1, [1, 0, 0, 1, 1, 1]>, <178, 23, 35, 12, 14, 0, 1, [1, 0, 0, 1, 1, 1]>};
